c testing file: tests/10.40.160707067.cnf
c 4
s SATISFIABLE
v 1 2 3 4 -5 6 7 -8 9 -10

real	0m0.156s
user	0m0.064s
sys	0m0.008s

c testing file: tests/10.40.967323288.cnf
c 3
s SATISFIABLE
v 1 2 3 4 -5 6 -7 8 9 10

real	0m0.153s
user	0m0.064s
sys	0m0.008s

c testing file: tests/10.42.1465130262.cnf
c 3
s SATISFIABLE
v 1 2 -3 4 5 6 7 8 -9 -10

real	0m0.153s
user	0m0.064s
sys	0m0.008s

c testing file: tests/10.42.504071595.cnf
c 10004
s SATISFIABLE
v -1 2 3 4 5 -6 7 8 9 -10

real	0m22.455s
user	0m14.776s
sys	0m0.004s

c testing file: tests/10.44.1247388329.cnf
c 30003
c 43 clauses satisfied
v UNKNOWN

real	1m37.129s
user	1m3.296s
sys	0m0.004s

c testing file: tests/10.44.1667358355.cnf
c 2
s SATISFIABLE
v -1 2 3 4 -5 -6 7 -8 9 -10

real	0m0.147s
user	0m0.064s
sys	0m0.004s

c testing file: tests/10.46.183405239.cnf
c 30003
c 45 clauses satisfied
v UNKNOWN

real	1m34.086s
user	1m3.016s
sys	0m0.012s

c testing file: tests/10.46.623142927.cnf
c 30003
c 45 clauses satisfied
v UNKNOWN

real	1m33.750s
user	1m1.844s
sys	0m0.012s

c testing file: tests/10.48.1494607484.cnf
c 2
s SATISFIABLE
v -1 2 -3 -4 -5 6 7 -8 -9 10

real	0m0.139s
user	0m0.056s
sys	0m0.012s

c testing file: tests/10.48.640112774.cnf
c 30003
c 47 clauses satisfied
v UNKNOWN

real	1m38.675s
user	1m4.852s
sys	0m0.016s

